
Gurobi 10.0.3 (linux64, gurobi_cl) logging started Thu Nov  9 11:48:34 2023

Set parameter Username
Set parameter TimeLimit to value 3600
Set parameter LogFile to value "RCPSP_1185.log"
Set parameter Threads to value 32
Academic license - for non-commercial use only - expires 2024-10-30
Using license file /home/jrivera6/gurobi-licenses/v1003/compute-0-37/gurobi.lic

Gurobi Optimizer version 10.0.3 build v10.0.3rc0 (linux64)
Copyright (c) 2023, Gurobi Optimization, LLC

Read MPS format model from file RCPSP_1185.mps
Reading time = 0.06 seconds
RCPSP_1185: 42947 rows, 17020 columns, 142862 nonzeros

CPU model: Intel(R) Xeon(R) Gold 6242 CPU @ 2.80GHz, instruction set [SSE2|AVX|AVX2|AVX512]
Thread count: 32 physical cores, 32 logical processors, using up to 32 threads

Optimize a model with 42947 rows, 17020 columns and 142862 nonzeros
Model fingerprint: 0x57c42aba
Variable types: 92 continuous, 16928 integer (16928 binary)
Coefficient statistics:
  Matrix range     [1e+00, 5e+02]
  Objective range  [1e+00, 1e+00]
  Bounds range     [1e+00, 1e+00]
  RHS range        [1e+00, 5e+02]
Presolve removed 7950 rows and 2119 columns
Presolve time: 4.18s
Presolved: 34997 rows, 14901 columns, 120563 nonzeros
Variable types: 91 continuous, 14810 integer (14810 binary)

Deterministic concurrent LP optimizer: primal and dual simplex (primal and dual model)
Showing first log only...

Root relaxation presolved: 34997 rows, 14901 columns, 120563 nonzeros


Root simplex log...

Iteration    Objective       Primal Inf.    Dual Inf.      Time
       0    9.7366345e+01   5.743302e-02   2.767822e+08      5s
    2124    9.5000000e+01   0.000000e+00   0.000000e+00      6s
Concurrent spin time: 0.16s

Solved with dual simplex (dual model)

Root relaxation: objective 9.500000e+01, 16700 iterations, 1.47 seconds (0.12 work units)

    Nodes    |    Current Node    |     Objective Bounds      |     Work
 Expl Unexpl |  Obj  Depth IntInf | Incumbent    BestBd   Gap | It/Node Time

     0     0   95.00000    0    4          -   95.00000      -     -    7s
     0     0   95.00000    0   96          -   95.00000      -     -   20s
     0     0   95.00000    0    4          -   95.00000      -     -   24s
     0     0   95.00000    0    2          -   95.00000      -     -   27s
H    0     0                      95.0000000   95.00000  0.00%     -   29s
     0     0   95.00000    0   18   95.00000   95.00000  0.00%     -   29s

Cutting planes:
  Gomory: 6
  Implied bound: 29
  MIR: 15
  RLT: 11
  Relax-and-lift: 6

Explored 1 nodes (25012 simplex iterations) in 30.02 seconds (5.33 work units)
Thread count was 32 (of 32 available processors)

Solution count 1: 95 

Optimal solution found (tolerance 1.00e-04)
Best objective 9.500000000000e+01, best bound 9.500000000000e+01, gap 0.0000%

Wrote result file 'RCPSP_1185.sol'

